%nprocshared=6
#p cam-b3lyp/aug-cc-pvdz pop=full gfinput

Acetilaceton

0 1
O        0.815488159     -1.363179607      0.000000000
O        2.683062130      0.232490698      0.000000000
C        1.863985231      1.209621489      0.000000000
C        2.489248671      2.560421960      0.000000000
H        2.158585477      3.131802443     -0.867131331
H        2.158585477      3.131802443      0.867131331
H        3.569589595      2.449504618      0.000000000
C        0.014067423     -0.361713311      0.000000000
C       -1.402742673     -0.632102396      0.000000000
C        0.464493762      0.974738648      0.000000000
C       -2.278505429      0.458312754      0.000000000
C       -0.488653405      2.081167899      0.000000000
O       -1.833671378      1.742231776      0.000000000
O       -0.228629295      3.253453260      0.000000000
C       -3.656347832      0.264924124      0.000000000
C       -1.927130936     -1.934594126      0.000000000
C       -3.291876591     -2.130449934      0.000000000
C       -4.152660634     -1.026782949      0.000000000
H       -4.308014832      1.126675710      0.000000000
H       -5.223287358     -1.181498708      0.000000000
H       -3.696654850     -3.132420260      0.000000000
H       -1.240188117     -2.768144444      0.000000000
B        2.322996189     -1.251478369      0.000000000
F        2.802317152     -1.799735312     -1.149633323
F        2.802317152     -1.799735312      1.149633323

