%nprocshared=6
#p M062X/aug-cc-pvdz pop=full gfinput

Acetilaceton

0 1
B       -1.546666300     -0.202097944     -0.031653021
C        1.025027892      0.430998544      0.018455528
C       -0.574363884      2.205133547      0.188740633
C       -2.179548018     -0.641784590     -1.461534742
H       -3.220977050     -0.301081315     -1.469092869
H       -1.686649807     -0.067688886     -2.258229974
C       -2.152348774     -2.124449679     -1.851636995
H       -2.741068024     -2.706407181     -1.138241098
H       -1.130611209     -2.521216150     -1.786231426
C       -2.682366040     -2.391980619     -3.261417097
H       -2.089560111     -1.862111041     -4.010572462
H       -3.713768178     -2.046426337     -3.358859732
H       -2.661635309     -3.455466350     -3.509825089
C       -2.162285517     -0.894009441      1.308866005
H       -1.961770411     -0.240104247      2.167202550
H       -3.253772414     -0.905041823      1.211119691
C       -1.690081534     -2.306451313      1.683196134
H       -0.605509968     -2.303259864      1.848790652
H       -1.864085097     -3.000946302      0.857316739
C       -2.363971578     -2.859808166      2.940163671
H       -3.445554468     -2.924435652      2.804655051
H       -2.181789234     -2.210904842      3.799694065
H       -1.999601405     -3.858522212      3.191541925
N        0.053870824     -0.431757813     -0.073616183
N       -1.605943567      1.367416959      0.096218421
N       -0.927151671      3.470082970      0.312744890
C       -2.281976148      3.355105376      0.287847184
N       -2.736351656      2.120683413      0.159019642
H       -2.944199163      4.201256090      0.365727022
N        0.738046618      1.739148104      0.155142837
H        1.468808796      2.403208637      0.344392339
H        0.357053380     -1.377930420     -0.248187844
C        2.448855528      0.037614208     -0.030316790
C        3.388940696      0.829518186     -0.691790921
C        2.876342757     -1.145052179      0.580759880
C        4.721268031      0.443142672     -0.742535870
C        4.208695074     -1.518503104      0.528955984
C        5.156522220     -0.733888359     -0.134647683
H        3.078643905      1.733084048     -1.199998887
H        2.169933484     -1.758661311      1.124020909
H        5.431982996      1.064504927     -1.271795731
H        4.521204795     -2.431639069      1.019677112
C        6.599116864     -1.156205263     -0.188443912
H        7.007504413     -1.286061395      0.815403936
H        6.707718268     -2.111644419     -0.705509343
H        7.211049292     -0.421437866     -0.708823098

