%nprocshared=6
#p cam-b3lyp/def2tzvp pop=full gfinput

Acetilaceton

0 1
B       -1.547642699     -0.202705403     -0.032689293
C        1.024453502      0.427817652      0.019823831
C       -0.571736103      2.203322955      0.193510089
C       -2.179665102     -0.638810474     -1.463576286
H       -3.220139887     -0.295217701     -1.471545092
H       -1.684740367     -0.065057297     -2.259265930
C       -2.156306857     -2.121122610     -1.855288846
H       -2.746506278     -2.702276014     -1.142466060
H       -1.135639967     -2.520718334     -1.790444255
C       -2.687127323     -2.385519892     -3.265322027
H       -2.093195772     -1.856093575     -4.013882980
H       -3.717754287     -2.037532383     -3.362172728
H       -2.668809427     -3.448701055     -3.515037998
C       -2.163372493     -0.896681208      1.306443994
H       -1.963888518     -0.243792284      2.165766322
H       -3.254745635     -0.908190431      1.207869070
C       -1.690690227     -2.309411802      1.679174746
H       -0.606030207     -2.306292579      1.844495103
H       -1.864799582     -3.003080133      0.852640193
C       -2.363939614     -2.864019315      2.935890781
H       -3.445546517     -2.928696707      2.800784929
H       -2.181404238     -2.215986615      3.795981278
H       -1.999274616     -3.862895285      3.186018251
N        0.053648280     -0.434265534     -0.074055533
N       -1.604137885      1.366840987      0.098566349
N       -0.922898202      3.468206490      0.320997608
C       -2.277798638      3.354878689      0.295803310
N       -2.733452647      2.121156241      0.163588638
H       -2.939094015      4.201502316      0.376013988
N        0.740353457      1.735812869      0.158098959
H        1.472337720      2.399154795      0.345805560
H        0.356037992     -1.380997220     -0.247582571
C        2.449953659      0.032361298     -0.028698566
C        3.381705983      0.816743440     -0.714474475
C        2.873974043     -1.137638060      0.606629384
C        4.714738203      0.432652475     -0.765457619
C        4.208703922     -1.514405876      0.556914409
C        5.130619563     -0.731473655     -0.129373687
H        3.061052400      1.708341673     -1.236849310
H        2.165979553     -1.736585566      1.163646693
H        5.426236030      1.038807216     -1.309248266
H        4.529849768     -2.415429320      1.061276973
H        6.170059769     -1.027819997     -0.168121822

