# opt freq b3lyp pop=full def2tzvpp gfinput

Acac

0 1
 O                  0.00000000   -1.26747894   -1.24397770
 C                  0.00000000   -1.21982469    0.03816792
 C                  0.00000000    0.00000000    0.73267274
 C                 -0.00000000    1.21982469    0.03816792
 O                 -0.00000000    1.26747894   -1.24397770
 H                  0.00000000    0.00000000   -1.57168643
 C                  0.00000000    2.53162946    0.76397461
 H                 -0.88397979    3.10708478    0.48972691
 H                  0.00000000    2.38020651    1.84149086
 H                  0.88397979    3.10708478    0.48972691
 C                  0.00000000   -2.53162946    0.76397461
 H                 -0.88397979   -3.10708478    0.48972691
 H                  0.88397979   -3.10708478    0.48972691
 H                  0.00000000   -2.38020651    1.84149086
 H                  0.00000000    0.00000000    1.81169360

