# opt freq b3lyp def2tzvpp gfinput pop=full

Acac

0 1
O       -1.261599000      1.234857000     -0.000094000
C       -1.199818000     -0.081055000     -0.000052000
C        0.006935000     -0.747954000      0.000055000
C        1.241959000      0.003431000      0.000082000
O        1.244285000      1.250060000      0.000092000
H       -0.295211000      1.551235000     -0.000018000
C        2.554544000     -0.747736000     -0.000058000
H        2.623683000     -1.400289000      0.885780000
H        2.624308000     -1.398515000     -0.887165000
H        3.389520000     -0.035306000      0.000880000
C       -2.532717000     -0.761888000      0.000014000
H       -3.109246000     -0.446742000      0.885171000
H       -3.109919000     -0.445717000     -0.884325000
H       -2.435376000     -1.855024000     -0.000611000
H        0.025342000     -1.837766000      0.000068000

