#p hf/def2tzvp pop=full gfinput EPT=(ovgf,ReadOrbitals) TRANS=IJAB

Acetilaceton

0 1
C       -1.129461543      0.285766698     -1.368452159
C        1.129461543     -0.285766698     -1.368452159
C       -2.283393103      0.573546542     -2.148166689
C        2.283393103     -0.573546542     -2.148166689
C       -3.471532235      0.898686808     -1.559174186
C        3.471532235     -0.898686808     -1.559174186
C       -3.549094612      0.951964834     -0.156942781
C        3.549094612     -0.951964834     -0.156942781
C       -2.421817416      0.664957245      0.562505303
C        2.421817416     -0.664957245      0.562505303
H       -4.340472633      1.118188753     -2.165617942
H        4.340472633     -1.118188753     -2.165617942
H       -4.461753350      1.213759668      0.356018098
H        4.461753350     -1.213759668      0.356018098
H       -2.429569374      0.701483215      1.638296498
H        2.429569374     -0.701483215      1.638296498
H       -2.162597006      0.526623668     -3.219677191
H        2.162597006     -0.526623668     -3.219677191
N        0.000000000      0.000000000     -2.016027099
N       -1.236728996      0.325620358     -0.001816414
N        1.236728996     -0.325620358     -0.001816414
B        0.000000000      0.000000000      0.983743496
C       -0.282708011     -1.363770750      1.841089266
C        0.282708011      1.363770750      1.841089266
H       -0.486665357     -2.184873122      1.142986956
H        0.486665357      2.184873122      1.142986956
H        0.655029607     -1.647204226      2.330408496
H       -0.655029607      1.647204226      2.330408496
C       -1.370048398     -1.366406916      2.925810198
C        1.370048398      1.366406916      2.925810198
H       -1.334394510     -2.282683505      3.519515138
H        1.334394510      2.282683505      3.519515138
H       -2.375080863     -1.312118611      2.504560479
H        2.375080863      1.312118611      2.504560479
H       -1.257969875     -0.530825732      3.621130299
H        1.257969875      0.530825732      3.621130299

39 46

