%nprocshared=6
#p M062X/aug-cc-pvdz pop=full gfinput

Acetilaceton

0 1
B        0.000000000      0.000000000     -1.796128369
C       -1.147122864      0.085627700      0.518719636
C        1.147122864     -0.085627700      0.518719636
C       -0.161517885     -1.367032674     -2.669273426
C        0.161517885      1.367032674     -2.669273426
H       -0.275126398     -2.219592447     -1.986385579
H        0.275126398      2.219592447     -1.986385579
H       -1.102602308     -1.326127535     -3.234624595
H        1.102602308      1.326127535     -3.234624595
C       -0.972691959      1.680706152     -3.653063238
C        0.972691959     -1.680706152     -3.653063238
H       -1.928291736      1.728424101     -3.116759342
H        1.928291736     -1.728424101     -3.116759342
H       -1.077003596      0.861252520     -4.370034673
H        1.077003596     -0.861252520     -4.370034673
C       -0.784964474      2.991409967     -4.418836187
C        0.784964474     -2.991409967     -4.418836187
H        0.136354264      2.971154012     -5.005455277
H       -0.136354264     -2.971154012     -5.005455277
H       -0.716715020      3.839242903     -3.733442641
H        0.716715020     -3.839242903     -3.733442641
H       -1.612167141      3.183879444     -5.105787518
H        1.612167141     -3.183879444     -5.105787518
N       -1.213414955      0.123166585     -0.792468232
N        1.213414955     -0.123166585     -0.792468232
N        0.000000000      0.000000000      1.206779740
H       -2.135408099      0.252668956     -1.179629356
H        2.135408099     -0.252668956     -1.179629356
C       -2.395735078      0.158912447      1.324834364
C        2.395735078     -0.158912447      1.324834364
C       -3.621743862     -0.281212299      0.818059284
C        3.621743862      0.281212299      0.818059284
C       -2.347632355      0.679945274      2.620149457
C        2.347632355     -0.679945274      2.620149457
C       -4.776061304     -0.190073439      1.584187645
C        4.776061304      0.190073439      1.584187645
C       -3.504334157      0.781481524      3.380148802
C        3.504334157     -0.781481524      3.380148802
C       -4.721415924      0.347924761      2.865078692
C        4.721415924     -0.347924761      2.865078692
H       -3.677514544     -0.730816223     -0.164880166
H        3.677514544      0.730816223     -0.164880166
H       -1.395198380      1.003598196      3.012464602
H        1.395198380     -1.003598196      3.012464602
H       -5.715579445     -0.546819170      1.183892873
H        5.715579445      0.546819170      1.183892873
H       -3.455905430      1.197930301      4.377530849
H        3.455905430     -1.197930301      4.377530849
H       -5.621487811      0.421760558      3.460933474
H        5.621487811     -0.421760558      3.460933474

