#p hf/def2tzvp pop=full gfinput EPT=(ovgf,ReadOrbitals) TRANS=IJAB

Acetilaceton

0 1
B        0.000000000      0.000000000     -1.709431000
C        0.174172000      1.137052000      0.605418000
C       -0.174172000     -1.137052000      0.605418000
C       -1.350427000      0.266859000     -2.582576000
C        1.350427000     -0.266859000     -2.582576000
H       -2.191634000      0.446125000     -1.899688000
H        2.191634000     -0.446125000     -1.899688000
H       -1.236793000      1.201952000     -3.147927000
H        1.236793000     -1.201952000     -3.147927000
C        1.750961000      0.839665000     -3.566365000
C       -1.750961000     -0.839665000     -3.566365000
H        1.872511000      1.788703000     -3.030061000
H       -1.872511000     -1.788703000     -3.030061000
H        0.942042000      1.007100000     -4.283337000
H       -0.942042000     -1.007100000     -4.283337000
C        3.043199000      0.551036000     -4.332138000
C       -3.043199000     -0.551036000     -4.332138000
H        2.951682000     -0.365950000     -4.918757000
H       -2.951682000      0.365950000     -4.918757000
H        3.883205000      0.417359000     -3.646745000
H       -3.883205000     -0.417359000     -3.646745000
H        3.299127000      1.360857000     -5.019090000
H       -3.299127000     -1.360857000     -5.019090000
N        0.216731000      1.200239000     -0.705770000
N       -0.216731000     -1.200239000     -0.705770000
N        0.000000000      0.000000000      1.293478000
H        0.417218000      2.109440000     -1.092931000
H       -0.417218000     -2.109440000     -1.092931000
C        0.343896000      2.376244000      1.411532000
C       -0.343896000     -2.376244000      1.411532000
C        0.000000000      3.632645000      0.904757000
C        0.000000000     -3.632645000      0.904757000
C        0.859641000      2.287951000      2.706847000
C       -0.859641000     -2.287951000      2.706847000
C        0.180224000      4.776443000      1.670886000
C       -0.180224000     -4.776443000      1.670886000
C        1.050416000      3.433322000      3.466847000
C       -1.050416000     -3.433322000      3.466847000
C        0.712378000      4.680314000      2.951777000
C       -0.712378000     -4.680314000      2.951777000
H       -0.443937000      3.723053000     -0.078182000
H        0.443937000     -3.723053000     -0.078182000
H        1.108592000      1.313320000      3.099162000
H       -1.108592000     -1.313320000      3.099162000
H       -0.102721000      5.740758000      1.270591000
H        0.102721000     -5.740758000      1.270591000
H        1.461866000      3.352800000      4.464229000
H       -1.461866000     -3.352800000      4.464229000
H        0.855669000      5.571969000      3.547631000
H       -0.855669000     -5.571969000      3.547631000

55 62

