#p hf/def2tzvp pop=full gfinput EPT=(P3,ReadOrbitals) TRANS=IJAB

Acetilaceton

0 1
B        0.000000000      0.000000000      1.061050541
O        0.000000000      1.218629700      0.174062370
O        0.000000000     -1.218629700      0.174062370
C        0.000000000      1.203059949     -1.117258696
C        0.000000000     -1.203059949     -1.117258696
C        0.000000000      0.000000000     -1.819845574
H        0.000000000      0.000000000     -2.892256209
O       -1.167181527      0.000000000      1.914749460
O        1.167181527      0.000000000      1.914749460
C       -0.699331235      0.000000000      3.196381780
C        0.699331235      0.000000000      3.196381780
C       -1.418971033      0.000000000      4.371129310
C        1.418971033      0.000000000      4.371129310
C       -0.694441769      0.000000000      5.571872836
C        0.694441769      0.000000000      5.571872836
H       -2.500201300      0.000000000      4.360954451
H        2.500201300      0.000000000      4.360954451
H       -1.229784868      0.000000000      6.511969367
H        1.229784868      0.000000000      6.511969367
C        0.000000000      2.527971060     -1.766596145
C        0.000000000     -2.527971060     -1.766596145
C        0.000000000      2.675396004     -3.159386468
C        0.000000000     -2.675396004     -3.159386468
C        0.000000000      3.677456113     -0.965951495
C        0.000000000     -3.677456113     -0.965951495
C        0.000000000      3.936516831     -3.734304253
C        0.000000000     -3.936516831     -3.734304253
C        0.000000000      4.937209212     -1.544556806
C        0.000000000     -4.937209212     -1.544556806
C        0.000000000      5.071065474     -2.928862883
C        0.000000000     -5.071065474     -2.928862883
H        0.000000000      1.809580981     -3.804763722
H        0.000000000     -1.809580981     -3.804763722
H        0.000000000      3.567637257      0.107805587
H        0.000000000     -3.567637257      0.107805587
H        0.000000000      4.035226639     -4.811318460
H        0.000000000     -4.035226639     -4.811318460
H        0.000000000      5.816174788     -0.914339768
H        0.000000000     -5.816174788     -0.914339768
H        0.000000000      6.054681444     -3.379375532
H        0.000000000     -6.054681444     -3.379375532

55 63

