#p b3pw91/cc-pvtz pop=full gfinput

Acetilaceton

0 1
O       -1.549162000     -1.377045000     -0.000030000
C       -1.880796000     -0.199055000      0.000091000
C        0.445517000      0.705588000     -0.000121000
C       -0.900153000      0.879296000     -0.000069000
H       -1.274317000      1.895573000     -0.000126000
C       -3.342648000      0.201769000     -0.000015000
C        1.349141000      1.906005000     -0.000160000
H       -3.572228000      0.809625000     -0.878155000
H        0.757839000      2.819571000     -0.000276000
H        1.996761000      1.919456000      0.877770000
H       -3.572560000      0.808362000      0.878919000
H       -3.966719000     -0.687947000     -0.000729000
H        1.996902000      1.919321000     -0.877982000
S        1.150442000     -0.897631000     -0.000013000
C        2.942868000     -0.570409000      0.000276000
H        3.394491000     -1.561090000      0.000452000
H        3.271401000     -0.041881000     -0.891756000
H        3.271090000     -0.041705000      0.892318000

