# opt freq b3lyp def2tzvpp gfinput

Hffac

0 1
H       -0.431929000     -1.545574000      0.000536000
O       -1.407309000     -1.257582000      0.000556000
C       -1.455559000      0.053319000     -0.000025000
C        1.023573000      0.434313000     -0.000751000
C       -0.334600000      0.869904000     -0.000645000
H       -0.519271000      1.946748000     -0.001013000
C       -2.849461000      0.601333000      0.000032000
C        2.074214000      1.519892000      0.000473000
H       -2.861887000      1.698531000     -0.000110000
H        1.959055000      2.160439000      0.891955000
H        3.086019000      1.096108000     -0.007645000
H       -3.392817000      0.229968000      0.884580000
H       -3.392948000      0.229763000     -0.884357000
H        1.949287000      2.173507000     -0.880029000
S        1.507122000     -1.175088000     -0.000179000

