%nprocshared=6
#p BHandHLYP/cc-pvtz pop=full gfinput

Acetilaceton

0 1
B       -5.035344729      0.298680797      0.000000000
F       -5.504408244      0.872456107     -1.148549887
F       -5.504408244      0.872456107      1.148549887
O       -3.522359567      0.405734900      0.000000000
O       -5.421975512     -1.164565419      0.000000000
C       -2.709645042     -0.594706702      0.000000000
C       -4.566801713     -2.126802728      0.000000000
C       -3.197750295     -1.906806996      0.000000000
C       -5.159968395     -3.497500006      0.000000000
H       -2.531025188     -2.749873178      0.000000000
H       -5.798142390     -3.613895564     -0.877389295
H       -5.798142390     -3.613895564      0.877389295
H       -4.397817677     -4.272316964      0.000000000
C       -1.280961347     -0.257971528      0.000000000
C       -0.276493613     -1.238664562      0.000000000
C       -0.890661367      1.087088271      0.000000000
C        1.057985763     -0.891133256      0.000000000
C        0.447437411      1.430860645      0.000000000
C        1.458673449      0.456637963      0.000000000
H       -0.535680795     -2.287217015      0.000000000
H       -1.650626048      1.853915200      0.000000000
H        1.798945497     -1.677755193      0.000000000
H        0.725864058      2.476960599      0.000000000
C        2.850328499      0.888643165      0.000000000
C        3.937672962      0.098929037      0.000000000
C        5.335767041      0.519841932      0.000000000
C        6.333161007     -0.465829491      0.000000000
C        5.741955737      1.863704609      0.000000000
C        7.679825493     -0.129596907      0.000000000
C        7.085425845      2.199584783      0.000000000
C        8.062331743      1.205938948      0.000000000
H        6.041573459     -1.508878862      0.000000000
H        5.003969411      2.653822564      0.000000000
H        8.429214453     -0.909936570      0.000000000
H        7.376115669      3.241865570      0.000000000
H        9.110373617      1.473755493      0.000000000
H        3.799482276     -0.976784097      0.000000000
H        2.983737661      1.964419634      0.000000000

