 $CONTRL DFTTYP=tHCTHhyb $END
 $SYSTEM MWORDS=100 $END
 $CONTRL MAXIT=200 SCFTYP=RHF RUNTYP=energy ISPHER=1 UNITS=ANGS
  EXETYP=RUN COORD=UNIQUE ICHARG=0                   $END
 $BASIS GBASIS=CCT                                   $END
 $SCF DIRSCF=.TRUE.                                  $END
 $SCF DIIS=.TRUE.                                    $END
 $SCF SOSCF=.FALSE.                                  $END
 $STATPT NSTEP=100 OPTTOL=1D-7                       $END
 $DFT NRAD=99 NLEB=1202                              $END
 $DATA
 C5H5O2F3
C1
HYDROGEN    1.0      0.866977000        -1.777858000         0.000010000
OXYGEN      8.0     -0.118460000        -1.587078000         0.000036000
OXYGEN      8.0      2.384869000        -1.178811000         0.000119000
CARBON      6.0     -0.218307000        -0.274816000        -0.000002000
CARBON      6.0      2.184291000         0.043257000         0.000002000
CARBON      6.0      0.833638000         0.578661000        -0.000028000
HYDROGEN    1.0      0.665707000         1.642729000        -0.000061000
CARBON      6.0     -1.664398000         0.195993000        -0.000008000
CARBON      6.0      3.338728000         1.007306000        -0.000055000
FLUORINE    9.0     -1.749590000         1.535661000        -0.000012000
HYDROGEN    1.0      3.288031000         1.654495000        -0.878219000
HYDROGEN    1.0      4.278627000         0.462443000         0.000400000
HYDROGEN    1.0      3.287568000         1.655255000         0.877515000
FLUORINE    9.0     -2.311969000        -0.257407000        -1.084705000
FLUORINE    9.0     -2.311984000        -0.257404000         1.084680000
 $END

!
!TRAVIS-CI SMALL
! 
