%mem=56GB
#p hf/cc-pvtz pop=full ept=(ovgf,readorbitals)

I

0 1
 O                 -1.37826700   -1.37862000   -0.00000800
 C                 -1.62445200   -0.15916600   -0.00000600
 C                 -0.60661300    0.84901900   -0.00009000
 C                  0.74522300    0.55968500   -0.00011100
 C                  1.76678300    1.65912500   -0.00007700
 H                  2.41234900    1.59533000   -0.87868600
 H                  1.28114200    2.63084100    0.00005900
 H                  2.41249600    1.59515000    0.87841000
 C                 -3.07539000    0.28196800    0.00015100
 H                 -3.57368000   -0.13364900   -0.87692000
 H                 -3.57299200   -0.13211100    0.87835200
 H                 -3.19283800    1.36436300   -0.00070200
 H                 -0.90112100    1.88698800   -0.00010200
 N                  1.18474600   -0.70734700   -0.00018800
 H                  0.42829000   -1.39468700   -0.00010200
 C                  2.56707700   -1.13136800    0.00018300
 H                  2.59021700   -2.21850600   -0.00071000
 H                  3.10707600   -0.78372700   -0.88424700
 H                  3.10621600   -0.78518400    0.88572900

23 25








