%nprocshared=6
#p WB97X/def2tzvp pop=full gfinput

Acetilaceton

0 1
C       -0.325323206     -1.117542932     -2.137505004
C        0.325323206      1.117542932     -2.137505004
C       -0.672190415     -2.262847211     -2.906369487
C        0.672190415      2.262847211     -2.906369487
C       -1.007963700     -3.440781984     -2.303479384
C        1.007963700      3.440781984     -2.303479384
C       -1.009153958     -3.522145126     -0.898516465
C        1.009153958      3.522145126     -0.898516465
C       -0.673852279     -2.404739900     -0.188796924
C        0.673852279      2.404739900     -0.188796924
H       -1.270364110     -4.303856243     -2.901155309
H        1.270364110      4.303856243     -2.901155309
H       -1.266474167     -4.432611647     -0.379659987
H        1.266474167      4.432611647     -0.379659987
H       -0.660587500     -2.405603113      0.889596852
H        0.660587500      2.405603113      0.889596852
H       -0.654216251     -2.146276739     -3.979215459
H        0.654216251      2.146276739     -3.979215459
N        0.000000000      0.000000000     -2.788105672
N       -0.339002525     -1.226953021     -0.772050773
N        0.339002525      1.226953021     -0.772050773
B        0.000000000      0.000000000      0.203885836
C       -1.341984610      0.345138918      1.062283660
C        1.341984610     -0.345138918      1.062283660
C       -2.346362040      1.169977370      0.534863142
C        2.346362040     -1.169977370      0.534863142
C       -1.606389098     -0.232747171      2.312132570
C        1.606389098      0.232747171      2.312132570
C       -3.537871105      1.411368257      1.210017193
C        3.537871105     -1.411368257      1.210017193
C       -2.795797721     -0.002699356      2.997118744
C        2.795797721      0.002699356      2.997118744
C       -3.768227153      0.824179296      2.448651493
C        3.768227153     -0.824179296      2.448651493
H       -2.201803306      1.639859933     -0.430646724
H        2.201803306     -1.639859933     -0.430646724
H       -0.865247957     -0.874246333      2.772304312
H        0.865247957      0.874246333      2.772304312
H       -4.286933434      2.056160270      0.767711803
H        4.286933434     -2.056160270      0.767711803
H       -2.959873884     -0.466737234      3.961704847
H        2.959873884      0.466737234      3.961704847
H       -4.693232251      1.009099174      2.979310000
H        4.693232251     -1.009099174      2.979310000

