# opt freq b3lyp def2svp gfinput

HSSac

0 1
H        1.731186000     -0.912564000      0.000000000
O        1.571161000      0.097144000      0.000000000
O        1.169760000     -2.360918000      0.000000000
C        0.268919000      0.223717000      0.000000000
C       -0.060992000     -2.175321000      0.000000000
C       -0.606505000     -0.828981000      0.000000000
H       -1.679550000     -0.651636000      0.000000000
C       -0.190959000      1.676319000      0.000000000
C       -0.989314000     -3.365107000      0.000000000
F       -1.527330000      1.767022000      0.000000000
H       -1.755059334     -3.311757133      0.785067904
H       -0.394593856     -4.283522579      0.128788562
H       -1.477516249     -3.438580143     -0.984898970
F        0.268919000      2.313452000      1.082629000
F        0.268919000      2.313452000     -1.082629000

