%nprocshared=6
#p hf/cc-pvtz EPT=P3 pop=full gfinput

Acetilaceton

0 1
O        2.177019000     -0.154430000     -0.263062000
C        1.070876000     -0.367146000      0.149321000
C        0.020123000      0.717379000      0.347433000
C       -1.282373000      0.323372000     -0.320683000
O       -1.958173000     -0.598274000      0.053810000
H        0.735290000     -1.385605000      0.419258000
H       -0.170564000      0.778918000      1.423347000
H        0.404517000      1.667390000     -0.017842000
H       -1.571769000      0.919302000     -1.207179000

