%nprocshared=6
#p hf/aug-cc-pvdz pop=full gfinput EPT=(P3,ReadOrbitals) TRANS=IJAB

Acetilaceton

0 1
H        0.346115000     -1.707319000     -0.000156000
O       -1.427501000     -1.295717000     -0.000220000
C       -1.514528000     -0.068697000     -0.000104000
C        0.946529000      0.499104000      0.000078000
C       -0.367917000      0.833558000      0.000030000
H       -0.600677000      1.891572000      0.000112000
C       -2.878215000      0.588027000     -0.000009000
C        2.014770000      1.555937000      0.000231000
H       -2.991686000      1.228212000     -0.877651000
H        2.655677000      1.454279000     -0.877759000
H        1.578852000      2.553163000      0.000338000
H       -2.992238000      1.226456000      0.878855000
H       -3.653791000     -0.172956000     -0.000953000
H        2.655634000      1.454071000      0.878228000
S        1.576143000     -1.125582000     -0.000038000

8 20

