%nprocshared=6
#p WB97X/cc-pvtz pop=full gfinput

Acetilaceton

0 1
B        0.000000000      0.000000000      1.198155100
F       -1.149632178      0.000000000      1.932693923
F        1.149632178      0.000000000      1.932693923
O        0.000000000     -1.235523364      0.311350736
O        0.000000000      1.235523364      0.311350736
C        0.000000000     -1.200430950     -0.971561184
C        0.000000000      1.200430950     -0.971561184
C        0.000000000      0.000000000     -1.675586897
C        0.000000000     -2.531300593     -1.647147143
C        0.000000000      2.531300593     -1.647147143
H        0.000000000      0.000000000     -2.752456424
H        0.877285192     -3.096371954     -1.328255947
H       -0.877285192     -3.096371954     -1.328255947
H        0.877285192      3.096371954     -1.328255947
H       -0.877285192      3.096371954     -1.328255947
H        0.000000000     -2.438914387     -2.729870820
H        0.000000000      2.438914387     -2.729870820

