#p hf/6-311++G(3df,3pd) pop=full gfinput EPT=(ovgf,ReadOrbitals) TRANS=IJAB

Acetilaceton

0 1
B       -1.540597106      0.098194227     -0.013977636
C        1.019380010      0.547646874      0.010393327
C       -0.331716227      2.373791755      0.079689126
C       -2.393655887     -0.428073039     -1.304939166
C       -2.112004384     -0.349279883      1.446853775
H       -3.460516823     -0.449543112     -1.047648924
H       -3.120234659      0.068452390      1.572818514
H       -2.306025644      0.299882486     -2.121876577
H       -1.503399787      0.127344233      2.227420633
C       -2.017726141     -1.802885440     -1.878556843
C       -2.181280168     -1.851823938      1.744758630
H       -2.050989539     -2.566850475     -1.095054133
H       -2.856588771     -2.341661664      1.036042249
H       -0.981643475     -1.780844252     -2.237029152
H       -1.197534123     -2.311332006      1.585883076
C       -2.910756406     -2.256285569     -3.036347230
C       -2.642220540     -2.185223712      3.166236299
H       -2.883986886     -1.497514255     -3.824633454
H       -1.964663917     -1.709284572      3.881917949
H       -3.948451176     -2.294913744     -2.690847697
H       -3.624364190     -1.732627364      3.335954513
N       -0.013684946     -0.259368851     -0.155294908
N       -1.486402989      1.706027415     -0.034659849
S       -0.595130719      4.095602845      0.095350597
C       -2.302983141      3.851114744     -0.062545203
C       -2.583123773      2.532429977     -0.116561321
N        0.896470018      1.869078831      0.159749007
H        0.218079921     -1.218383606     -0.357772907
C       -2.515588035     -3.612613911     -3.618381422
C       -2.715889074     -3.684616774      3.450501088
H       -1.494668018     -3.593468529     -4.006940199
H       -1.740662167     -4.160166335      3.321675063
H       -2.562698571     -4.396857238     -2.859259617
H       -3.414163346     -4.181278700      2.772843437
H       -3.174578937     -3.906081431     -4.437378435
H       -3.047517369     -3.884558956      4.470965962
H       -2.993841815      4.674062800     -0.100288272
C        2.399082064      0.001443241      0.011832448
C        3.478739652      0.840339682     -0.278022245
C        2.663015838     -1.337803675      0.308611686
C        4.772892438      0.346291870     -0.292723523
C        3.962366946     -1.824523030      0.298313461
C        5.040812261     -0.995274590     -0.010138380
H        3.283612667      1.881547197     -0.487289286
H        1.860268914     -2.007313546      0.589182861
H        5.592822675      1.015110340     -0.524320930
H        4.141561318     -2.863342093      0.545722888
C        6.446753979     -1.529934984     -0.051624856
H        7.161470414     -0.800054521      0.329556611
H        6.544073974     -2.442278689      0.536050931
H        6.742410472     -1.767104147     -1.077038158
H       -3.562093692      2.092635977     -0.211719644

61 64

