%nprocshared=6
#p hf/6-311++G(3df,3pd) pop=full gfinput EPT=(ovgf,ReadOrbitals) TRANS=IJAB

Acetilaceton

0 1
O       -1.329627000      1.266307000     -0.009411000
C       -1.269247000      0.028389000     -0.013388000
C       -0.028608000     -0.701448000     -0.013660000
C        1.201553000     -0.088829000     -0.000487000
C        2.475904000     -0.882067000      0.001855000
H        3.070567000     -0.648677000      0.888058000
H        2.273913000     -1.949654000     -0.006135000
H        3.080918000     -0.637513000     -0.874289000
C       -2.560248000     -0.767411000      0.009166000
H       -2.926207000     -0.817552000      1.037684000
H       -3.313782000     -0.251008000     -0.583035000
H       -2.433463000     -1.785886000     -0.355720000
H       -0.058638000     -1.780247000     -0.023140000
N        1.331412000      1.247827000      0.009707000
H        0.472439000      1.791489000      0.006438000
H        2.235273000      1.682004000      0.016554000

13 20