#p hf/cc-pvtz ovgf pop=full Trans=IJAB gfinput

Acetilaceton

0 1
H       -1.075933000      1.975089000      0.000288000
S        0.281978000      1.882881000      0.000019000
O       -2.587366000      0.975221000     -0.000120000
C        0.233740000      0.145313000     -0.000006000
C       -2.254868000     -0.205801000     -0.000057000
C       -0.856308000     -0.651140000     -0.000010000
H       -0.694285000     -1.719216000      0.000004000
C        1.618306000     -0.488105000      0.000004000
C       -3.298683000     -1.295792000      0.000047000
F        1.573588000     -1.830285000     -0.000061000
H       -3.177753000     -1.934650000     -0.877735000
H       -4.292453000     -0.857025000      0.000001000
H       -3.177760000     -1.934479000      0.877956000
F        2.321706000     -0.111719000     -1.083931000
F        2.321632000     -0.111822000      1.084023000

