#p b971/cc-pvtz pop=full gfinput

Acetilaceton

0 1
H       -0.439654000     -1.551449000      0.000269000
O       -1.406558000     -1.261373000      0.000298000
C       -1.450824000      0.052823000      0.000021000
C        1.017154000      0.430353000     -0.000379000
C       -0.335106000      0.859046000     -0.000325000
H       -0.517977000      1.925456000     -0.000573000
C       -2.839440000      0.599422000      0.000028000
C        2.055363000      1.523277000      0.000454000
H       -2.843804000      1.686204000      0.000006000
H        1.934181000      2.155707000      0.883762000
H        3.060820000      1.113185000     -0.007263000
H       -3.377840000      0.236767000      0.877768000
H       -3.377851000      0.236751000     -0.877702000
H        1.924627000      2.167551000     -0.872782000
S        1.512942000     -1.166794000     -0.000292000

