#p hf/cc-pvtz ovgf pop=full Trans=IJAB gfinput

Acetilaceton

0 1
H        0.472967000      1.791857000      0.006757000
O       -1.329682000      1.266459000     -0.009671000
C        1.201461000     -0.088876000     -0.000580000
C       -1.269360000      0.028662000     -0.013593000
C       -0.028673000     -0.701338000     -0.013976000
H       -0.058896000     -1.780144000     -0.023632000
C        2.475764000     -0.882211000      0.001899000
C       -2.560169000     -0.767521000      0.009466000
H        2.273688000     -1.949789000     -0.005457000
H       -2.434475000     -1.783451000     -0.362714000
H       -3.316417000     -0.247410000     -0.575978000
H       -2.921458000     -0.824935000      1.039327000
H        3.080584000     -0.638159000     -0.874517000
H        3.070652000     -0.648407000      0.887846000
N        1.331592000      1.247810000      0.009793000
H        2.235527000      1.681802000      0.017892000

