# opt freq b3lyp def2svp gfinput

HSSac

0 1
S       -1.647493000     -1.209301000      0.000000000
S        1.654700000     -1.201783000      0.000000000
C       -1.267540000      0.478214000      0.000000000
C        1.300124000      0.438853000      0.000000000
C        0.000000000      1.036396000      0.000000000
H        0.005525000      2.130742000      0.000000000
C       -2.476967000      1.378266000      0.000000000
C        2.478448471      1.391293039      0.000000000
H       -3.104997000      1.183406000      0.884956000
H       -3.104997000      1.183406000     -0.884956000
H        3.409591926      0.839138458      0.203213951
H        2.595756205      1.845986664     -0.996338963
H       -2.189189000      2.438941000      0.000000000
H        2.372346738      2.193537444      0.745350797
H       -0.283825000     -1.600806000      0.000000000

