# opt freq b3lyp def2tzvpp gfinput

Hffac

0 1
S        1.664767000     -1.199935000     -0.000208000
S       -1.660631000     -1.218790000      0.000142000
C        1.258124000      0.486324000      0.000069000
C       -1.311794000      0.417218000      0.000248000
C       -0.012215000      1.027187000      0.000635000
H       -0.032043000      2.122689000      0.000982000
C        2.459721000      1.397595000     -0.000054000
C       -2.466974000      1.395638000     -0.000474000
H        3.089403000      1.209114000     -0.885385000
H        3.089821000      1.208957000      0.884949000
H       -3.431675000      0.873699000     -0.000729000
H       -2.412912000      2.051883000      0.885572000
H        2.161875000      2.455665000      0.000100000
H       -2.411878000      2.050946000     -0.887117000
H        0.320059000     -1.617129000      0.000142000

