%nprocshared=6
#p cam-b3lyp/6-311++G(3df,3pd) pop=full gfinput

Acetilaceton

0 1
B        0.000000000      0.000000000     -0.185780046
O        1.247412460      0.000000000     -1.101536992
O       -1.247412460      0.000000000     -1.101536992
C       -1.202207111      0.000000000     -2.379751315
C        1.202207111      0.000000000     -2.379751315
C        0.000000000      0.000000000     -3.083599384
C        2.528445516      0.000000000     -3.068656136
C       -2.528445516      0.000000000     -3.068656136
H        0.000000000      0.000000000     -4.160363733
H        3.096467204      0.878065459     -2.757417950
H       -3.096467204      0.878065459     -2.757417950
H        3.096467204     -0.878065459     -2.757417950
H       -3.096467204     -0.878065459     -2.757417950
H       -2.425102511      0.000000000     -4.150495653
H        2.425102511      0.000000000     -4.150495653
C        0.000000000      1.362573841      0.668668392
C        0.000000000     -1.362573841      0.668668392
C        1.194153353      1.969656212      1.076627528
C       -1.194153353      1.969656212      1.076627528
C        1.194153353     -1.969656212      1.076627528
C       -1.194153353     -1.969656212      1.076627528
C        1.199560350      3.126448660      1.849035660
C       -1.199560350      3.126448660      1.849035660
C        1.199560350     -3.126448660      1.849035660
C       -1.199560350     -3.126448660      1.849035660
C        0.000000000      3.710953652      2.239092290
C        0.000000000     -3.710953652      2.239092290
H        2.141418234      1.532164300      0.785522831
H       -2.141418234      1.532164300      0.785522831
H        2.141418234     -1.532164300      0.785522831
H       -2.141418234     -1.532164300      0.785522831
H       -2.140703058      3.571473170      2.147648333
H        2.140703058      3.571473170      2.147648333
H       -2.140703058     -3.571473170      2.147648333
H        2.140703058     -3.571473170      2.147648333
H        0.000000000      4.610547784      2.841087795
H        0.000000000     -4.610547784      2.841087795

