 $CONTRL DFTTYP=TPSSH $END
 $SYSTEM MWORDS=100 $END
 $CONTRL MAXIT=200 SCFTYP=RHF RUNTYP=energy ISPHER=1 UNITS=ANGS
  EXETYP=RUN COORD=UNIQUE ICHARG=0                   $END
 $BASIS GBASIS=CCT                                   $END
 $SCF DIRSCF=.TRUE.                                  $END
 $SCF DIIS=.TRUE.                                    $END
 $SCF SOSCF=.FALSE.                                  $END
 $STATPT NSTEP=100 OPTTOL=1D-7                       $END
 $DFT NRAD=99 NLEB=1202                              $END
 $DATA
 C5H2O2F6
C1
HYDROGEN    1.0      0.397167000         2.101757000         0.000033000
OXYGEN      8.0      1.312315000         1.714446000         0.000081000
OXYGEN      8.0     -1.268014000         1.741434000        -0.000210000
CARBON      6.0      1.176933000         0.408038000        -0.000110000
CARBON      6.0     -1.224321000         0.515839000        -0.000327000
CARBON      6.0     -0.008851000        -0.253195000        -0.000338000
HYDROGEN    1.0     -0.034455000        -1.329399000        -0.000566000
CARBON      6.0      2.520617000        -0.310857000         0.000003000
FLUORINE    9.0      2.363839000        -1.641241000        -0.000485000
FLUORINE    9.0      3.231800000         0.026011000        -1.084607000
FLUORINE    9.0      3.231194000         0.025283000         1.085244000
CARBON      6.0     -2.554819000        -0.279670000        -0.000053000
FLUORINE    9.0     -2.616826000        -1.074499000        -1.085476000
FLUORINE    9.0     -2.618667000        -1.069905000         1.088690000
FLUORINE    9.0     -3.610726000         0.523205000        -0.002644000
 $END

!
!TRAVIS-CI SMALL
! 
