# opt freq b3lyp cc-pvdz gfinput pop=(full,NBO)

Hffac

0 1
O        1.240625000     -2.048877000     -0.027994000
C        1.211593000     -0.732463000     -0.012903000
C       -1.232139000     -0.794567000     -0.010213000
C        0.002596000     -0.053344000     -0.002446000
H       -0.004476000      1.030939000      0.017881000
O       -1.225126000     -2.050300000     -0.024548000
H        0.257175000     -2.340705000     -0.028836000
C        2.541939000     -0.077763000     -0.004767000
C        3.696374000     -0.882033000      0.036560000
C        2.695015000      1.321197000     -0.037845000
C        4.965885000     -0.303430000      0.047542000
C        3.964637000      1.897075000     -0.027522000
C        5.105085000      1.087199000      0.015875000
H        3.579786000     -1.965745000      0.060543000
H        1.819746000      1.971205000     -0.076088000
H        5.852069000     -0.942125000      0.080871000
H        4.065687000      2.984819000     -0.054687000
H        6.099423000      1.540889000      0.023996000
C       -2.556277000     -0.093283000     -0.000323000
C       -3.718385000     -0.885921000      0.006971000
C       -2.692312000      1.306174000      0.001109000
C       -4.981759000     -0.296707000      0.016369000
C       -3.957673000      1.896262000      0.010120000
C       -5.105170000      1.097227000      0.018048000
H       -3.599114000     -1.970445000      0.005070000
H       -1.811629000      1.949756000     -0.006223000
H       -5.875883000     -0.925304000      0.022347000
H       -4.048239000      2.985358000      0.010734000
H       -6.094993000      1.561043000      0.025291000

