#p opt=QST2 b3lyp/def2tzvpp scrf=(iefpcm,solvent=water,read)

Acac_Enol

0 1
O        1.276839000      1.236474000     -0.000433000
C        1.196523000     -0.083936000     -0.000093000
C       -0.007139000     -0.732399000      0.000096000
C       -1.242682000      0.008344000      0.000422000
O       -1.258073000      1.251951000      0.000283000
H        0.329615000      1.570276000     -0.000727000
C       -2.543312000     -0.756153000      0.000026000
H       -2.602746000     -1.402752000     -0.877855000
H       -2.603876000     -1.401345000      0.878872000
H       -3.380002000     -0.062631000     -0.001009000
C        2.519937000     -0.771202000     -0.000095000
H        3.092766000     -0.467697000     -0.878296000
H        3.092988000     -0.467297000      0.877823000
H        2.408784000     -1.852531000      0.000161000
H       -0.027609000     -1.811339000      0.000097000

Acac_Keto

0 1
O        1.404471000      1.430609000     -0.298495000
C        1.202736000      0.306686000      0.101868000
C        0.000111000     -0.000186000      1.006854000
C       -1.202734000     -0.306810000      0.101716000
O       -1.404924000     -1.430602000     -0.298600000
C       -2.050034000      0.880710000     -0.291880000
H       -2.580733000      1.267941000      0.594557000
H       -1.401722000      1.695147000     -0.655066000
H       -2.778693000      0.590557000     -1.059957000
C        2.050361000     -0.880479000     -0.291979000
H        1.402207000     -1.694638000     -0.656185000
H        2.779167000     -0.589552000     -1.059631000
H        2.580699000     -1.268611000      0.594232000
H       -0.190767000      0.884754000      1.629667000
H        0.190825000     -0.885175000      1.629681000

surface=vdw


