# opt freq b3lyp def2tzvpp gfinput

Hffac

0 1
O       -2.830700000     -0.120300000     -0.092000000
N        1.225800000     -1.947500000      0.137600000
C        0.635800000     -0.797000000      0.037700000
C       -0.718100000     -0.783900000      0.034000000
C        1.587700000      0.299900000     -0.055300000
C       -1.651600000      0.216100000     -0.040300000
C       -1.445100000      1.651300000     -0.055200000
H       -1.133300000     -1.692500000      0.094800000
H        2.241400000      0.304600000      0.820600000
H        2.210400000      0.182800000     -0.945400000
H        1.164900000      1.294900000     -0.112800000
H       -0.896400000      1.943500000     -0.951700000
H       -0.900400000      1.959500000      0.838700000
H       -2.375800000      2.225900000     -0.063200000
H        2.151700000     -2.018000000      0.019400000
H        0.733700000     -2.719200000      0.333100000

