%nprocshared=6
#p hf/aug-cc-pvdz pop=full gfinput EPT=(ovgf,ReadOrbitals) TRANS=IJAB

Acetilaceton

0 1
O       -1.378267000     -1.378620000     -0.000008000
C       -1.624452000     -0.159166000     -0.000006000
C       -0.606613000      0.849019000     -0.000090000
C        0.745223000      0.559685000     -0.000111000
C        1.766783000      1.659125000     -0.000077000
H        2.412349000      1.595330000     -0.878686000
H        1.281142000      2.630841000      0.000059000
H        2.412496000      1.595150000      0.878410000
C       -3.075390000      0.281968000      0.000151000
H       -3.573680000     -0.133649000     -0.876920000
H       -3.572992000     -0.132111000      0.878352000
H       -3.192838000      1.364363000     -0.000702000
H       -0.901121000      1.886988000     -0.000102000
N        1.184746000     -0.707347000     -0.000188000
H        0.428290000     -1.394687000     -0.000102000
C        2.567077000     -1.131368000      0.000183000
H        2.590217000     -2.218506000     -0.000710000
H        3.107076000     -0.783727000     -0.884247000
H        3.106216000     -0.785184000      0.885729000

16 23

