# opt freq b3lyp def2tzvpp gfinput

Acetilaceton

0 1
O       -1.325169000      1.274070000      0.000193000
C       -1.274285000      0.035194000      0.000262000
C       -0.031858000     -0.708805000      0.000187000
C        1.204426000     -0.089810000     -0.000027000
C        2.485152000     -0.881374000      0.000025000
H        3.091537000     -0.636789000      0.888844000
H        2.290345000     -1.961172000     -0.000668000
H        3.092125000     -0.635711000     -0.888087000
C       -2.566155000     -0.767954000     -0.000143000
H       -2.615710000     -1.425758000      0.883446000
H       -3.423627000     -0.082344000      0.004731000
H       -2.619570000     -1.417185000     -0.889886000
H       -0.066686000     -1.798986000      0.000193000
N        1.324751000      1.251946000     -0.000270000
H        0.444967000      1.780359000      0.000010000
H        2.231030000      1.697900000     -0.000063000

