# opt freq b3lyp def2tzvpp gfinput

Hmal

0 1
 O                  2.29050000   -0.24970000    0.00000000
 C                  1.11230000    0.40230000    0.00000000
 C                 -0.04450000   -0.29400000    0.00000000
 C                 -1.27480000    0.38680000    0.00000000
 O                 -2.31560000   -0.23960000    0.00000000
 H                  3.09180000    0.29170000    0.00000000
 H                  1.09270000    1.48210000    0.00000000
 H                 -0.02490000   -1.37380000    0.00000000
 H                 -1.29440000    1.46660000    0.00000000

