%nprocshared=6
# opt freq b3lyp def2tzvpp gfinput

Hmal

0 1
O       -2.140176699     -0.324469291      0.041450058
C       -1.066990181     -0.202684092     -0.483396268
C        0.029958249      0.776201821      0.007507501
C        1.169271694     -0.064537869      0.402503257
O        1.934681630     -0.564788374     -0.375907956
H       -0.783843985     -0.816947161     -1.359291607
H        0.358222249      1.385491821     -0.834813499
H       -0.298777751      1.394182821      0.843262501
H        1.267097667     -0.233217699      1.491860797


