# opt freq b3lyp def2svp gfinput

Hmal

0 1
O       -1.228479423     -0.823848955      0.000000000
C       -1.205242424      0.490452920      0.000000000
C        1.291381614      0.491691429      0.000000000
C        0.019048567      1.119238084      0.000000000
H       -0.001245979      2.200783089      0.000000000
O        1.172530327     -0.943391302      0.000000000
H       -2.092331288      1.106463543      0.000000000
H        2.179601851      1.105658687      0.000000000
H       -0.450524720     -1.386328619      0.000000000

