# opt freq WB97X cc-pvdz gfinput pop=(full,NBO)

Hffac

0 1
O       -1.268834000     -0.890409000      0.000000000
C       -1.186555000      0.418226000      0.000000000
C        1.229758000      0.359741000      0.000000000
C        0.000000000      1.108340000      0.000000000
H        0.007611000      2.198336000      0.000000000
O        1.271685000     -0.878722000      0.000000000
H       -2.159116000      0.927161000      0.000000000
H        2.184234000      0.933476000      0.000000000
H       -0.314757000     -1.223773000      0.000000000

