# opt freq WB97X cc-pvdz gfinput pop=(full,NBO)

Hffac

0 1
O       -1.538832000     -1.371437000     -0.000043000
C       -1.884252000     -0.196698000     -0.000013000
C        0.447286000      0.716523000     -0.000029000
C       -0.906023000      0.894993000     -0.000117000
H       -1.283581000      1.921473000     -0.000264000
C       -3.353131000      0.193189000      0.000179000
C        1.364707000      1.910449000     -0.000046000
H       -3.592059000      0.805051000     -0.885863000
H        0.780205000      2.841023000     -0.000659000
H        2.019958000      1.918330000      0.885738000
H       -3.592184000      0.803302000      0.887385000
H       -3.973464000     -0.712410000     -0.000728000
H        2.020942000      1.917740000     -0.885080000
S        1.143037000     -0.905064000     -0.000184000
C        2.944827000     -0.579692000      0.000284000
H        3.398705000     -1.581158000      0.000752000
H        3.281829000     -0.046994000     -0.900259000
H        3.281223000     -0.046414000      0.900711000

