# opt freq WB97X cc-pvdz gfinput pop=(full,NBO)

Hffac

0 1
H        0.296261000     -1.682714000     -0.000587000
O       -1.422804000     -1.289887000      0.000026000
C       -1.514537000     -0.059993000      0.000250000
C        0.956887000      0.503250000      0.000060000
C       -0.365879000      0.848717000      0.000086000
H       -0.597599000      1.917674000      0.000043000
C       -2.885364000      0.590107000     -0.000182000
C        2.038666000      1.550897000      0.000030000
H       -3.005050000      1.235962000     -0.885879000
H        2.686193000      1.439386000     -0.885498000
H        1.614092000      2.564689000      0.000135000
H       -3.006348000      1.233721000      0.886987000
H       -3.661676000     -0.185562000     -0.001631000
H        2.686366000      1.439267000      0.885414000
S        1.561972000     -1.140075000     -0.000041000

