 $CONTRL DFTTYP=B97-1 $END
 $SYSTEM MWORDS=100 $END
 $CONTRL MAXIT=200 SCFTYP=RHF RUNTYP=energy ISPHER=1 UNITS=ANGS
  EXETYP=RUN COORD=UNIQUE ICHARG=0                   $END
 $BASIS GBASIS=CCT                                   $END
 $SCF DIRSCF=.TRUE.                                  $END
 $SCF DIIS=.TRUE.                                    $END
 $SCF SOSCF=.FALSE.                                  $END
 $STATPT NSTEP=100 OPTTOL=1D-7                       $END
 $DFT NRAD=99 NLEB=1202                              $END
 $DATA
 C6NH11O
C1
OXYGEN      8.0     -1.378267000        -1.378620000        -0.000008000
CARBON      6.0     -1.624452000        -0.159166000        -0.000006000
CARBON      6.0     -0.606613000         0.849019000        -0.000090000
CARBON      6.0      0.745223000         0.559685000        -0.000111000
CARBON      6.0      1.766783000         1.659125000        -0.000077000
HYDROGEN    1.0      2.412349000         1.595330000        -0.878686000
HYDROGEN    1.0      1.281142000         2.630841000         0.000059000
HYDROGEN    1.0      2.412496000         1.595150000         0.878410000
CARBON      6.0     -3.075390000         0.281968000         0.000151000
HYDROGEN    1.0     -3.573680000        -0.133649000        -0.876920000
HYDROGEN    1.0     -3.572992000        -0.132111000         0.878352000
HYDROGEN    1.0     -3.192838000         1.364363000        -0.000702000
HYDROGEN    1.0     -0.901121000         1.886988000        -0.000102000
NITROGEN    7.0      1.184746000        -0.707347000        -0.000188000
HYDROGEN    1.0      0.428290000        -1.394687000        -0.000102000
CARBON      6.0      2.567077000        -1.131368000         0.000183000
HYDROGEN    1.0      2.590217000        -2.218506000        -0.000710000
HYDROGEN    1.0      3.107076000        -0.783727000        -0.884247000
HYDROGEN    1.0      3.106216000        -0.785184000         0.885729000
 $END
!
!TRAVIS-CI SMALL
! 
