%nprocshared=6
#p cam-b3lyp/aug-cc-pvdz pop=full gfinput

Acetilaceton

0 1
B       -0.564078584     -0.154295120      0.000000000
N       -0.181560718      2.032331494     -1.185873139
N       -0.181560718      2.032331494      1.185873139
N       -0.227152231      0.743999752     -1.239345261
N       -0.227152231      0.743999752      1.239345261
C       -0.262320391      2.625632082      0.000000000
O       -1.965639913     -0.615343945      0.000000000
O        0.192688698     -1.398603754      0.000000000
C       -3.032142909      0.193973725      0.000000000
C        1.529485834     -1.453940399      0.000000000
O       -2.967178741      1.400301436      0.000000000
O        2.249472686     -0.480900659      0.000000000
C       -4.326229413     -0.579775558      0.000000000
C        2.029835249     -2.873710028      0.000000000
H        1.650144202     -3.397318078     -0.877758574
H        1.650144202     -3.397318078      0.877758574
H       -4.374023907     -1.226005776     -0.877039547
H       -4.374023907     -1.226005776      0.877039547
H       -5.166814000      0.107230321      0.000000000
H        3.115385667     -2.884885230      0.000000000
H       -0.280262267      3.702850570      0.000000000
C        0.060858370      0.168784058     -2.520777411
C        0.060858370      0.168784058      2.520777411
C       -0.767822184     -0.862312813     -2.966666278
C       -0.767822184     -0.862312813      2.966666278
C        1.147626375      0.608837483     -3.299119334
C        1.147626375      0.608837483      3.299119334
C       -0.559067158     -1.449469170     -4.204201392
C       -0.559067158     -1.449469170      4.204201392
C        1.329057964     -0.005516145     -4.539451198
C        1.329057964     -0.005516145      4.539451198
C        0.492482086     -1.013228782     -4.999132031
C        0.492482086     -1.013228782      4.999132031
H       -1.580376757     -1.194738732     -2.339186541
H       -1.580376757     -1.194738732      2.339186541
H       -1.216253395     -2.238884592     -4.542591958
H       -1.216253395     -2.238884592      4.542591958
H        2.164125104      0.311654607     -5.151079044
H        2.164125104      0.311654607      5.151079044
H        0.669610741     -1.461744454     -5.967638414
H        0.669610741     -1.461744454      5.967638414
C        2.135322774      1.651199295     -2.846429678
C        2.135322774      1.651199295      2.846429678
H        2.418722226      1.502216072     -1.805354735
H        2.418722226      1.502216072      1.805354735
H        3.036393001      1.591538510     -3.455739222
H        3.036393001      1.591538510      3.455739222
H        1.727631810      2.657450443     -2.936250197
H        1.727631810      2.657450443      2.936250197

